p cnf 275 658
1 0
11 -12 0
-11 12 0
13 14 0
-13 -14 0
10 -11 0
10 -13 0
-10 11 13 0
15 16 0
-15 -16 0
9 -10 0
9 -15 0
-9 10 15 0
19 -20 0
-19 20 0
21 22 0
-21 -22 0
18 -19 0
18 -21 0
-18 19 21 0
23 24 0
-23 -24 0
17 -18 0
17 -23 0
-17 18 23 0
-8 9 0
-8 17 0
8 -9 -17 0
27 -28 0
-27 28 0
29 30 0
-29 -30 0
26 -27 0
26 -29 0
-26 27 29 0
31 32 0
-31 -32 0
25 -26 0
25 -31 0
-25 26 31 0
-7 8 0
-7 25 0
7 -8 -25 0
35 -36 0
-35 36 0
37 38 0
-37 -38 0
34 -35 0
34 -37 0
-34 35 37 0
39 40 0
-39 -40 0
33 -34 0
33 -39 0
-33 34 39 0
-6 7 0
-6 33 0
6 -7 -33 0
49 -36 0
-49 36 0
50 38 0
-50 -38 0
-48 49 0
-48 50 0
48 -49 -50 0
51 40 0
-51 -40 0
-47 48 0
-47 51 0
47 -48 -51 0
54 12 0
-54 -12 0
55 14 0
-55 -14 0
-53 54 0
-53 55 0
53 -54 -55 0
56 -16 0
-56 16 0
-52 53 0
-52 56 0
52 -53 -56 0
-46 47 0
-46 52 0
46 -47 -52 0
60 36 0
-60 -36 0
61 -38 0
-61 38 0
-59 60 0
-59 61 0
59 -60 -61 0
62 -40 0
-62 40 0
-58 59 0
-58 62 0
58 -59 -62 0
65 -12 0
-65 12 0
66 14 0
-66 -14 0
-64 65 0
-64 66 0
64 -65 -66 0
67 16 0
-67 -16 0
-63 64 0
-63 67 0
63 -64 -67 0
-57 58 0
-57 63 0
57 -58 -63 0
45 -46 0
45 -57 0
-45 46 57 0
-70 59 0
70 -59 0
71 40 0
-71 -40 0
-69 70 0
-69 71 0
69 -70 -71 0
74 12 0
-74 -12 0
75 -14 0
-75 14 0
-73 74 0
-73 75 0
73 -74 -75 0
76 -16 0
-76 16 0
-72 73 0
-72 76 0
72 -73 -76 0
-68 69 0
-68 72 0
68 -69 -72 0
44 -45 0
44 -68 0
-44 45 68 0
80 36 0
-80 -36 0
81 38 0
-81 -38 0
-79 80 0
-79 81 0
79 -80 -81 0
82 -40 0
-82 40 0
-78 79 0
-78 82 0
78 -79 -82 0
-84 73 0
84 -73 0
85 16 0
-85 -16 0
-83 84 0
-83 85 0
83 -84 -85 0
-77 78 0
-77 83 0
77 -78 -83 0
43 -44 0
43 -77 0
-43 44 77 0
-87 69 0
87 -69 0
-88 63 0
88 -63 0
-86 87 0
-86 88 0
86 -87 -88 0
42 -43 0
42 -86 0
-42 43 86 0
-91 79 0
91 -79 0
92 40 0
-92 -40 0
-90 91 0
-90 92 0
90 -91 -92 0
-93 52 0
93 -52 0
-89 90 0
-89 93 0
89 -90 -93 0
41 -42 0
41 -89 0
-41 42 89 0
-5 6 0
-5 41 0
5 -6 -41 0
-95 6 0
95 -6 0
-102 47 0
102 -47 0
105 20 0
-105 -20 0
106 22 0
-106 -22 0
-104 105 0
-104 106 0
104 -105 -106 0
107 -24 0
-107 24 0
-103 104 0
-103 107 0
103 -104 -107 0
-101 102 0
-101 103 0
101 -102 -103 0
-109 58 0
109 -58 0
112 -20 0
-112 20 0
113 22 0
-113 -22 0
-111 112 0
-111 113 0
111 -112 -113 0
114 24 0
-114 -24 0
-110 111 0
-110 114 0
110 -111 -114 0
-108 109 0
-108 110 0
108 -109 -110 0
100 -101 0
100 -108 0
-100 101 108 0
-116 69 0
116 -69 0
119 20 0
-119 -20 0
120 -22 0
-120 22 0
-118 119 0
-118 120 0
118 -119 -120 0
121 -24 0
-121 24 0
-117 118 0
-117 121 0
117 -118 -121 0
-115 116 0
-115 117 0
115 -116 -117 0
99 -100 0
99 -115 0
-99 100 115 0
-123 78 0
123 -78 0
-125 118 0
125 -118 0
126 24 0
-126 -24 0
-124 125 0
-124 126 0
124 -125 -126 0
-122 123 0
-122 124 0
122 -123 -124 0
98 -99 0
98 -122 0
-98 99 122 0
-128 69 0
128 -69 0
-129 110 0
129 -110 0
-127 128 0
-127 129 0
127 -128 -129 0
97 -98 0
97 -127 0
-97 98 127 0
-131 90 0
131 -90 0
-132 103 0
132 -103 0
-130 131 0
-130 132 0
130 -131 -132 0
96 -97 0
96 -130 0
-96 97 130 0
-94 95 0
-94 96 0
94 -95 -96 0
4 -5 0
4 -94 0
-4 5 94 0
-134 6 0
134 -6 0
-141 47 0
141 -47 0
144 28 0
-144 -28 0
145 30 0
-145 -30 0
-143 144 0
-143 145 0
143 -144 -145 0
146 -32 0
-146 32 0
-142 143 0
-142 146 0
142 -143 -146 0
-140 141 0
-140 142 0
140 -141 -142 0
-148 58 0
148 -58 0
151 -28 0
-151 28 0
152 30 0
-152 -30 0
-150 151 0
-150 152 0
150 -151 -152 0
153 32 0
-153 -32 0
-149 150 0
-149 153 0
149 -150 -153 0
-147 148 0
-147 149 0
147 -148 -149 0
139 -140 0
139 -147 0
-139 140 147 0
-155 69 0
155 -69 0
158 28 0
-158 -28 0
159 -30 0
-159 30 0
-157 158 0
-157 159 0
157 -158 -159 0
160 -32 0
-160 32 0
-156 157 0
-156 160 0
156 -157 -160 0
-154 155 0
-154 156 0
154 -155 -156 0
138 -139 0
138 -154 0
-138 139 154 0
-162 78 0
162 -78 0
-164 157 0
164 -157 0
165 32 0
-165 -32 0
-163 164 0
-163 165 0
163 -164 -165 0
-161 162 0
-161 163 0
161 -162 -163 0
137 -138 0
137 -161 0
-137 138 161 0
-167 69 0
167 -69 0
-168 149 0
168 -149 0
-166 167 0
-166 168 0
166 -167 -168 0
136 -137 0
136 -166 0
-136 137 166 0
-170 90 0
170 -90 0
-171 142 0
171 -142 0
-169 170 0
-169 171 0
169 -170 -171 0
135 -136 0
135 -169 0
-135 136 169 0
-133 134 0
-133 135 0
133 -134 -135 0
3 -4 0
3 -133 0
-3 4 133 0
-173 6 0
173 -6 0
-180 47 0
180 -47 0
-181 78 0
181 -78 0
-179 180 0
-179 181 0
179 -180 -181 0
-183 58 0
183 -58 0
-184 47 0
184 -47 0
-182 183 0
-182 184 0
182 -183 -184 0
178 -179 0
178 -182 0
-178 179 182 0
-186 69 0
186 -69 0
-187 58 0
187 -58 0
-185 186 0
-185 187 0
185 -186 -187 0
177 -178 0
177 -185 0
-177 178 185 0
-189 78 0
189 -78 0
-190 69 0
190 -69 0
-188 189 0
-188 190 0
188 -189 -190 0
176 -177 0
176 -188 0
-176 177 188 0
-192 69 0
192 -69 0
-193 47 0
193 -47 0
-191 192 0
-191 193 0
191 -192 -193 0
175 -176 0
175 -191 0
-175 176 191 0
-195 90 0
195 -90 0
-196 78 0
196 -78 0
-194 195 0
-194 196 0
194 -195 -196 0
174 -175 0
174 -194 0
-174 175 194 0
-172 173 0
-172 174 0
172 -173 -174 0
2 -3 0
2 -172 0
-2 3 172 0
-206 63 0
206 -63 0
-207 103 0
207 -103 0
-205 206 0
-205 207 0
205 -206 -207 0
-209 72 0
209 -72 0
-210 110 0
210 -110 0
-208 209 0
-208 210 0
208 -209 -210 0
204 -205 0
204 -208 0
-204 205 208 0
-212 83 0
212 -83 0
-213 117 0
213 -117 0
-211 212 0
-211 213 0
211 -212 -213 0
203 -204 0
203 -211 0
-203 204 211 0
-215 52 0
215 -52 0
-216 124 0
216 -124 0
-214 215 0
-214 216 0
214 -215 -216 0
202 -203 0
202 -214 0
-202 203 214 0
-218 83 0
218 -83 0
-219 110 0
219 -110 0
-217 218 0
-217 219 0
217 -218 -219 0
201 -202 0
201 -217 0
-201 202 217 0
-222 53 0
222 -53 0
223 16 0
-223 -16 0
-221 222 0
-221 223 0
221 -222 -223 0
-224 103 0
224 -103 0
-220 221 0
-220 224 0
220 -221 -224 0
200 -201 0
200 -220 0
-200 201 220 0
-231 110 0
231 -110 0
-232 142 0
232 -142 0
-230 231 0
-230 232 0
230 -231 -232 0
-234 117 0
234 -117 0
-235 149 0
235 -149 0
-233 234 0
-233 235 0
233 -234 -235 0
229 -230 0
229 -233 0
-229 230 233 0
-237 124 0
237 -124 0
-238 156 0
238 -156 0
-236 237 0
-236 238 0
236 -237 -238 0
228 -229 0
228 -236 0
-228 229 236 0
-240 103 0
240 -103 0
-241 163 0
241 -163 0
-239 240 0
-239 241 0
239 -240 -241 0
227 -228 0
227 -239 0
-227 228 239 0
-243 124 0
243 -124 0
-244 149 0
244 -149 0
-242 243 0
-242 244 0
242 -243 -244 0
226 -227 0
226 -242 0
-226 227 242 0
-247 104 0
247 -104 0
248 24 0
-248 -24 0
-246 247 0
-246 248 0
246 -247 -248 0
-249 142 0
249 -142 0
-245 246 0
-245 249 0
245 -246 -249 0
225 -226 0
225 -245 0
-225 226 245 0
-199 200 0
-199 225 0
199 -200 -225 0
-256 149 0
256 -149 0
-257 78 0
257 -78 0
-255 256 0
-255 257 0
255 -256 -257 0
-259 156 0
259 -156 0
-260 47 0
260 -47 0
-258 259 0
-258 260 0
258 -259 -260 0
254 -255 0
254 -258 0
-254 255 258 0
-262 163 0
262 -163 0
-263 58 0
263 -58 0
-261 262 0
-261 263 0
261 -262 -263 0
253 -254 0
253 -261 0
-253 254 261 0
-265 142 0
265 -142 0
-266 69 0
266 -69 0
-264 265 0
-264 266 0
264 -265 -266 0
252 -253 0
252 -264 0
-252 253 264 0
-268 163 0
268 -163 0
-269 47 0
269 -47 0
-267 268 0
-267 269 0
267 -268 -269 0
251 -252 0
251 -267 0
-251 252 267 0
-272 143 0
272 -143 0
273 32 0
-273 -32 0
-271 272 0
-271 273 0
271 -272 -273 0
-274 78 0
274 -78 0
-270 271 0
-270 274 0
270 -271 -274 0
250 -251 0
250 -270 0
-250 251 270 0
-198 199 0
-198 250 0
198 -199 -250 0
-275 221 0
275 -221 0
-197 198 0
-197 275 0
197 -198 -275 0
-1 2 0
-1 197 0
1 -2 -197 0
